17	4	3
12	15	18	17	26	15	26	
0	0	0	0	0	4	10	1	5	1	5	3	2	3	4
6	0	0	2	0	1	3	10	6	9	6	3	6	12	17
9	9	0	0	0	5	6	5	6	9	9	1	17
5	0	0	2	0	5	6	2	7	6	5	3	5	10	17
7	0	0	0	6	8	4	6	5	4	7	2	7	17
125	0	3	0	0	10	7	6	10	2	6	3	8	9	14
225	0	6	0	0	5	2	9	4	8	7	2	15	17
225	0	0	0	9	10	2	3	5	8	1	2	11	17
225	0	0	0	6	3	3	7	4	9	2	1	13
25	4	0	0	0	9	7	5	5	1	8	1	17
25	0	0	0	6	1	1	5	7	10	6	1	16
150	0	3	0	0	3	5	7	2	9	4	1	17
5	0	9	0	0	9	8	6	1	2	4	1	16
3	0	8	0	0	2	5	6	8	9	5	1	17
3	0	0	0	2	10	7	2	5	2	2	1	17
2	0	7	0	0	2	2	3	6	9	2	1	17
0	0	0	0	0	2	2	7	8	3	5	0
